52
3 119 65 55 
2 53 18 
2 74 89 
2 115 22 
2 10 75 
2 78 20 
2 54 34 
3 45 60 35 
2 23 38 
2 49 95 
3 71 109 103 
3 77 117 33 
2 79 25 
2 104 47 
2 70 73 
3 83 64 11 
2 90 51 
2 112 27 
2 44 88 
3 108 28 8 
2 16 66 
3 48 43 57 
2 62 87 
3 40 52 58 
3 12 114 50 
3 97 13 120 
2 18 34 
2 84 94 
2 91 80 
3 36 81 37 
3 107 118 63 
2 105 96 
2 113 53 
2 69 42 
2 110 14 
2 26 1 
3 59 92 99 
2 6 76 
2 5 56 
3 93 15 41 
2 2 82 
3 29 4 46 
2 31 24 
2 101 9 
2 17 100 
2 21 111 
2 86 30 
2 102 85 
2 67 116 
2 62 7 
3 61 39 106 
2 98 54 
